
%FILE DATA:	Soccer Computational Problem for MiniZinc Models	%
%AUTHOR:	Jack Wall	%
%CONTACT:  	116397063@umail.ucc.ie			%
%LAST UPDATE:	03/11/2020, 17:01:54						%
%DESCRIPTION: 	143 games played with 13 games left				%


n=13; %number of teams

%Games to play
games=[|7,1|2,10|1,13|2,6|7,10|9,6|2,13|3,2|13,2|8,2|10,6|7,8|11,5|];

%Initial points
iPoints=[38,25,38,38,30,25,32,31,27,18,39,26,27];

%POSITION CONSTRAINTS
% [|teamID, operator, position|...]
% operators index:
%  1 for =  operator
%  2 for >  operator
%  3 for >= operator
%  4 for <  operator
%  5 for <= operator
positionConstraints=[|11,1,1|3,2,1|1,5,3|];